Version identifier: 22.1.0.0 | 2022-03-09 | 1a383f8ce
CPXPARAM_Threads                                 1
CPXPARAM_MIP_Strategy_VariableSelect             3
CPXPARAM_TimeLimit                               599.99998349999998
1 of 1 MIP starts provided solutions.
MIP start 'm1' defined initial solution with objective 1.0000.
Tried aggregator 1 time.
MIP Presolve eliminated 17 rows and 0 columns.
MIP Presolve modified 1 coefficients.
Reduced MIP has 902 rows, 2000 columns, and 20718 nonzeros.
Reduced MIP has 2000 binaries, 0 generals, 0 SOSs, and 0 indicators.
Presolve time = 0.01 sec. (10.14 ticks)
Probing time = 0.00 sec. (2.84 ticks)
Tried aggregator 1 time.
Detecting symmetries...
Reduced MIP has 902 rows, 2000 columns, and 20718 nonzeros.
Reduced MIP has 2000 binaries, 0 generals, 0 SOSs, and 0 indicators.
Presolve time = 0.01 sec. (11.82 ticks)
Probing time = 0.00 sec. (2.84 ticks)
Clique table members: 493.
MIP emphasis: balance optimality and feasibility.
MIP search method: dynamic search.
Parallel mode: none, using 1 thread.
Root relaxation solution time = 0.09 sec. (85.00 ticks)

        Nodes                                         Cuts/
   Node  Left     Objective  IInf  Best Integer    Best Bound    ItCnt     Gap

*     0+    0                            1.0000     2000.0000              --- 
      0     0      100.0000   363        1.0000      100.0000     1173     --- 
      0     0      100.0000   156        1.0000    Cliques: 6     1714     --- 
      0     0      100.0000   123        1.0000       Cuts: 5     1966     --- 
      0     0      100.0000   192        1.0000      Cuts: 77     2422     --- 
*     0+    0                           66.0000      100.0000            51.52%
*     0+    0                           88.0000      100.0000            13.64%
      0     0        cutoff             88.0000      100.0000     2422   13.64%
      0     0      100.0000   182       88.0000      Cuts: 13     2866   13.64%
      0     0      100.0000   255       88.0000      Cuts: 53     3157   13.64%
Detecting symmetries...
Detecting symmetries...
      0     2      100.0000    86       88.0000      100.0000     3157   13.64%
Elapsed time = 3.89 sec. (3780.22 ticks, tree = 0.01 MB, solutions = 3)
      1     3      100.0000   266       88.0000      100.0000     5711   13.64%
      4     6      100.0000   196       88.0000      100.0000     7235   13.64%
      6     8      100.0000   224       88.0000      100.0000    10283   13.64%
      9    11      100.0000   308       88.0000      100.0000    12051   13.64%
     12    14      100.0000   254       88.0000      100.0000    13821   13.64%
     14    16      100.0000   215       88.0000      100.0000    15649   13.64%
     15    17      100.0000   312       88.0000      100.0000    17835   13.64%
     18    20      100.0000   336       88.0000      100.0000    18991   13.64%
     20    22      100.0000   206       88.0000      100.0000    19159   13.64%
     28    30      100.0000   210       88.0000      100.0000    21831   13.64%
Elapsed time = 8.27 sec. (8212.53 ticks, tree = 0.07 MB, solutions = 3)
     37    39      100.0000   235       88.0000      100.0000    23651   13.64%
     44    46      100.0000   254       88.0000      100.0000    27280   13.64%
     52    54      100.0000   229       88.0000      100.0000    31613   13.64%
     60    62      100.0000   176       88.0000      100.0000    33934   13.64%
     70    72      100.0000   225       88.0000      100.0000    36806   13.64%
     80    82      100.0000   165       88.0000      100.0000    39349   13.64%
     88    89       99.9355   150       88.0000      100.0000    46023   13.64%
    104   105       99.3143   140       88.0000      100.0000    48326   13.64%
    119   118       98.2857   136       88.0000      100.0000    51361   13.64%
    136   135       98.9091    89       88.0000      100.0000    52925   13.64%
Elapsed time = 18.44 sec. (18204.97 ticks, tree = 0.77 MB, solutions = 3)
*   150+  143                           95.0000      100.0000             5.26%
    153   146        cutoff             95.0000      100.0000    57470    5.26%
*   175   154      integral     0       96.0000      100.0000    62597    4.17%
    177   154        cutoff             96.0000      100.0000    62841    4.17%
    190   162      100.0000   122       96.0000      100.0000    65472    4.17%
    199   171      100.0000   126       96.0000      100.0000    67661    4.17%
    209   181      100.0000   124       96.0000      100.0000    69908    4.17%
    216   188      100.0000   139       96.0000      100.0000    71455    4.17%
    225   197      100.0000   132       96.0000      100.0000    73435    4.17%
    235   207      100.0000   166       96.0000      100.0000    75961    4.17%
    244   216      100.0000   110       96.0000      100.0000    78154    4.17%
    255   227      100.0000   155       96.0000      100.0000    81228    4.17%
Elapsed time = 28.72 sec. (28366.06 ticks, tree = 1.52 MB, solutions = 5)
    263   235      100.0000   128       96.0000      100.0000    85632    4.17%
    273   244      100.0000    95       96.0000      100.0000    89239    4.17%
    293   257       99.1429   102       96.0000      100.0000    92422    4.17%
*   307   242      integral     0       97.0000      100.0000    93898    3.09%
    316   249       99.1556   127       97.0000      100.0000    95433    3.09%
*   320+  201                           98.0000      100.0000             2.04%
    330   208      100.0000   261       98.0000      100.0000    97728    2.04%
    340   218       99.9418   196       98.0000      100.0000   100953    2.04%
    358   228       99.3084   157       98.0000      100.0000   101926    2.04%
    370   236      100.0000   217       98.0000      100.0000   103552    2.04%
    380   246       99.9814   199       98.0000      100.0000   106732    2.04%
    398   253       99.3453   192       98.0000      100.0000   108509    2.04%
Elapsed time = 39.05 sec. (38370.75 ticks, tree = 1.77 MB, solutions = 7)
    412   261      100.0000   204       98.0000      100.0000   110907    2.04%
    422   271      100.0000   171       98.0000      100.0000   112976    2.04%
    434   283      100.0000   102       98.0000      100.0000   115936    2.04%
    445   293       99.9952   153       98.0000      100.0000   119918    2.04%
    461   301       99.1724   119       98.0000      100.0000   123094    2.04%
    480   312       99.2453   103       98.0000      100.0000   125206    2.04%
    503   315       99.0000   120       98.0000      100.0000   127585    2.04%
    520   326       99.7692   140       98.0000      100.0000   131406    2.04%
    546   329       99.0000    82       98.0000      100.0000   134746    2.04%
    568   334       99.9668   137       98.0000      100.0000   138840    2.04%
Elapsed time = 49.34 sec. (48341.01 ticks, tree = 2.45 MB, solutions = 7)
    590   340       99.8800   116       98.0000      100.0000   141259    2.04%
    604   352       99.4000   115       98.0000      100.0000   144949    2.04%
    619   366      100.0000    73       98.0000      100.0000   148811    2.04%
    653   374       99.0625    78       98.0000      100.0000   150949    2.04%
    672   383       99.7778   108       98.0000      100.0000   153218    2.04%
    693   397       99.0000    81       98.0000      100.0000   154949    2.04%
    714   406        cutoff             98.0000      100.0000   159870    2.04%
    735   414      100.0000    80       98.0000      100.0000   161959    2.04%
    748   425      100.0000    51       98.0000      100.0000   166514    2.04%
    760   433       99.2000   124       98.0000      100.0000   171945    2.04%
Elapsed time = 59.72 sec. (58235.67 ticks, tree = 3.29 MB, solutions = 7)
    780   438       99.2500    93       98.0000      100.0000   174520    2.04%
    799   447       99.6156   121       98.0000      100.0000   179343    2.04%
    826   456       99.0000   104       98.0000      100.0000   180977    2.04%
    850   466       99.5427   131       98.0000      100.0000   184518    2.04%
    874   474       99.1886   131       98.0000      100.0000   186488    2.04%
    887   480       99.6000   131       98.0000      100.0000   192133    2.04%
    908   489       99.5312   119       98.0000      100.0000   194166    2.04%
    928   496       99.3774   106       98.0000      100.0000   197871    2.04%
    956   500       99.7143   114       98.0000      100.0000   201052    2.04%
    982   507       99.4000   120       98.0000      100.0000   202947    2.04%
Elapsed time = 70.15 sec. (68138.77 ticks, tree = 3.93 MB, solutions = 7)
   1000   514       99.0571   101       98.0000      100.0000   204684    2.04%
   1017   521      100.0000    44       98.0000      100.0000   208652    2.04%
   1038   528       99.3514   113       98.0000      100.0000   211661    2.04%
   1064   536       99.3103    76       98.0000      100.0000   213261    2.04%
   1099   545       99.0000    60       98.0000      100.0000   217956    2.04%
   1117   559       99.7692   145       98.0000      100.0000   219943    2.04%
   1141   573      100.0000    44       98.0000      100.0000   221758    2.04%
   1159   584      100.0000    91       98.0000      100.0000   225174    2.04%
   1180   592       99.3118   156       98.0000      100.0000   228056    2.04%
   1199   600       99.7692   124       98.0000      100.0000   231315    2.04%
Elapsed time = 80.38 sec. (77842.04 ticks, tree = 4.73 MB, solutions = 7)
   1220   607       99.8172   167       98.0000      100.0000   234095    2.04%
   1242   611       99.4943   154       98.0000      100.0000   235858    2.04%
   1260   620       99.4828   147       98.0000      100.0000   239131    2.04%
   1274   632      100.0000    77       98.0000      100.0000   242891    2.04%
   1286   642       99.8819   133       98.0000      100.0000   248026    2.04%
   1302   652       99.5556   110       98.0000      100.0000   251855    2.04%
   1323   663       99.3223   136       98.0000      100.0000   253644    2.04%
   1348   674       99.3333   121       98.0000      100.0000   255493    2.04%
   1374   680       99.3648   157       98.0000      100.0000   259653    2.04%
   1396   684       99.1212   134       98.0000      100.0000   261825    2.04%
Elapsed time = 90.78 sec. (87741.16 ticks, tree = 5.46 MB, solutions = 7)
   1412   693       99.6757   107       98.0000      100.0000   266946    2.04%
   1435   699       99.6129   144       98.0000      100.0000   270306    2.04%
   1456   707       99.3771   122       98.0000      100.0000   272289    2.04%
*  1474+  256                           99.0000      100.0000             1.01%
   1474   256       99.0000     0       99.0000      100.0000   274245    1.01%
   1489   257      100.0000    79       99.0000      100.0000   282941    1.01%
   1506   252      100.0000   115       99.0000      100.0000   293435    1.01%
   1524   254      100.0000    67       99.0000      100.0000   301175    1.01%
   1545   256      100.0000    76       99.0000      100.0000   309404    1.01%
   1563   257      100.0000    85       99.0000      100.0000   318337    1.01%
   1633   261      100.0000   110       99.0000      100.0000   347379    1.01%
Elapsed time = 105.73 sec. (101520.21 ticks, tree = 1.91 MB, solutions = 8)
   1688   282    infeasible             99.0000      100.0000   373336    1.01%
   1753   261      100.0000    71       99.0000      100.0000   415726    1.01%
   1811   280      100.0000    97       99.0000      100.0000   442126    1.01%
   1872   285      100.0000    89       99.0000      100.0000   476238    1.01%
   1936   275      100.0000    81       99.0000      100.0000   513969    1.01%
   2004   291      100.0000    94       99.0000      100.0000   538036    1.01%

Performing restart 1

Repeating presolve.
Tried aggregator 1 time.
Reduced MIP has 902 rows, 2000 columns, and 20718 nonzeros.
Reduced MIP has 2000 binaries, 0 generals, 0 SOSs, and 0 indicators.
Presolve time = 0.01 sec. (9.81 ticks)
Tried aggregator 1 time.
Reduced MIP has 902 rows, 2000 columns, and 20718 nonzeros.
Reduced MIP has 2000 binaries, 0 generals, 0 SOSs, and 0 indicators.
Presolve time = 0.01 sec. (12.13 ticks)
Represolve time = 0.14 sec. (94.04 ticks)
   2075     0      100.0000   143       99.0000      Cuts: 10   567894    1.01%
   2075     0      100.0000   224       99.0000     Cuts: 100   569077    1.01%
   2075     0      100.0000   157       99.0000    Cliques: 2   569814    1.01%
   2075     0      100.0000   400       99.0000      Cuts: 44   570882    1.01%
   2075     0      100.0000   168       99.0000      Cuts: 25   571598    1.01%
   2075     0      100.0000   314       99.0000      Cuts: 28   571898    1.01%
   2075     0      100.0000   286       99.0000      Cuts: 14   572358    1.01%
   2075     0      100.0000   295       99.0000     Cuts: 122   572761    1.01%
*  2075+    0                          100.0000      100.0000             0.00%
   2075     0        cutoff            100.0000      100.0000   572761    0.00%
   2075     0        cutoff            100.0000      100.0000   572761    0.00%

Clique cuts applied:  23
Zero-half cuts applied:  4

Root node processing (before b&c):
  Real time             =    3.88 sec. (3769.28 ticks)
Sequential b&c:
  Real time             =  137.97 sec. (131453.10 ticks)
                          ------------
Total (root+branch&cut) =  141.85 sec. (135222.38 ticks)
10
18
18
12
15
3
7
15
6
16
11
8
19
14
8
0
14
5
16
2
13
0
9
13
16
4
15
12
4
2
12
5
2
12
8
3
12
15
3
7
10
3
4
12
15
1
7
10
1
7
10
4
7
10
3
7
10
1
7
10
1
7
10
6
18
13
2
0
13
2
18
12
15
18
16
13
3
16
11
5
19
11
8
0
11
6
17
11
6
17
11
6
17
11
6
17
11
6
17
11
Primal:	100
Dual:	100
Status:	Optimal
Time:	141.82
